n = 4;
K = 3;
capacity = [15.0,15.0,15.0];
nodeInfo = [
<0,0,100,0>
<9,0,100,3>
<0,0,100,2>
<6,0,100,3>
<9,0,100,2>
<9,0,100,4>
<2,0,100,4>
<6,0,100,1>
<7,0,100,4>
<0,0,100,0>
];
X = [20,21,17,18,19,21,21,21,23,20];
Y = [20,21,21,19,18,19,23,17,19,20];
membership = [1,1,1,1,1,1,1,1,1,1];
